50
    1    45    18
    2    17    19
    3    27     5
    4    21    26
    5    22    15
    6    24    14
    7    22    28
    8    42    18
    9     7    10
   10    13    21
   11    14    10
   12    14     8
   13    20     3
   14    11    21
   15     4    17
   16    47    41
   17    27    22
   18    11     7
   19     9    24
   20     4    49
   21    46    14
   22    22    28
   23    37    47
   24    31     7
   25    46    19
   26     7     7
   27    33     1
   28    26    26
   29    11    10
   30     3    46
   31    48    30
   32    21    42
   33    39    46
   34     6     8
   35    44     3
   36    32    26
   37    50     5
   38    46    47
   39     5    29
   40    26    47
   41    19     2
   42    50    20
   43    14    15
   44    42    12
   45    45    32
   46    36     3
   47     5    40
   48    45    22
   49    45    50
   50    40    23
541
